c turning on binary mode checking
c parsing input formula with 259840 variables and 1039919 clauses
c finished parsing, read 105547083 bytes from proof file
c detected empty clause; start verification via backward checking
c 146796 of 1039919 clauses in core                            
c 429240 of 1595623 lemmas in core using 13183712 resolution steps
c 0 RAT lemmas in core; 139219 redundant literals in core lemmas
s VERIFIED
c verification time: 62.752 seconds
